NAME : rnd26_50.tsp
TYPE : TSP
DIMENSION : 50
EDGE_WEIGHT_TYPE : EUC_2D
NODE_COORD_SECTION
1 627 128
2 78 919
3 618 777
4 332 381
5 402 757
6 610 504
7 46 498
8 9 419
9 191 34
10 941 995
11 129 56
12 511 587
13 392 758
14 89 854
15 924 143
16 989 401
17 253 493
18 911 71
19 75 142
20 142 559
21 856 496
22 175 794
23 486 390
24 195 614
25 819 672
26 642 931
27 644 640
28 190 789
29 458 829
30 863 187
31 421 512
32 149 658
33 189 572
34 83 911
35 834 831
36 780 65
37 736 725
38 7 191
39 777 599
40 405 903
41 790 716
42 157 746
43 827 251
44 213 782
45 753 408
46 590 206
47 959 475
48 932 768
49 206 666
50 27 733
